14 76 191 32 60 156 154 62 68 35 2 28 93 146 77 72 109 155 94 98 48 69 73 57 134 40 89 83 151 142 37 170 171 84 192 168 137 114 166 194 104 61 29 135 106 22 199 181 1 78 18 33 44 136 95 25 110 92 38 85 113 140 86 71 27 128 7 53 67 70 180 163 21 43 187 161 20 79 101 0 10 75 169 81 139 34 152 183 80 36 121 167 178 124 19 96 179 9 157 188 160 45 87 118 133 16 119 39 24 126 51 65 88 116 56 190 120 165 147 26 4 125 111 13 182 107 158 42 122 31 117 143 23 17 47 12 189 144 184 54 195 185 176 138 5 172 193 3 8 175 30 50 177 112 150 102 108 97 198 145 164 58 127 105 162 64 59 55 132 91 186 129 153 52 123 196 103 131 74 130 141 115 66 63 49 148 6 82 11 197 41 159 46 100 90 174 15 149 99 173 

